p cnf 7230 18
5463 5585 5705 5847 5849 -6011 0
-5463 -6012 0
-5142 -5879 6008 0
-5585 -6012 0
-5705 -6012 0
-2884 -5891 -6009 0
2884 -6010 0
-5847 -6012 0
6011 6012 0
6009 6010 0
5891 -6010 0
-5849 -6012 0
-6007 -6008 0
6007 6008 0
-5859 -6014 0
-5857 -6014 0
-5703 -6014 0
-5467 -6014 0
